certificates/rado_a15_c223_N27.cnf
c Rad2 upper bound instance: x1 + 15*x2 - x3 = 223, interval [1,27]
p cnf 27 98
1 3 15 0
-1 -3 -15 0
1 16 18 0
-1 -16 -18 0
2 4 15 0
-2 -4 -15 0
2 16 19 0
-2 -16 -19 0
3 5 15 0
-3 -5 -15 0
3 16 20 0
-3 -16 -20 0
4 6 15 0
-4 -6 -15 0
4 16 21 0
-4 -16 -21 0
5 7 15 0
-5 -7 -15 0
5 16 22 0
-5 -16 -22 0
6 8 15 0
-6 -8 -15 0
6 16 23 0
-6 -16 -23 0
7 9 15 0
-7 -9 -15 0
7 16 24 0
-7 -16 -24 0
8 10 15 0
-8 -10 -15 0
8 16 25 0
-8 -16 -25 0
9 11 15 0
-9 -11 -15 0
9 16 26 0
-9 -16 -26 0
10 12 15 0
-10 -12 -15 0
10 16 27 0
-10 -16 -27 0
11 13 15 0
-11 -13 -15 0
12 14 15 0
-12 -14 -15 0
13 15 0
-13 -15 0
1 14 0
-1 -14 0
14 15 16 0
-14 -15 -16 0
2 14 15 0
-2 -14 -15 0
15 17 0
-15 -17 0
3 14 16 0
-3 -14 -16 0
15 16 18 0
-15 -16 -18 0
4 14 17 0
-4 -14 -17 0
15 17 19 0
-15 -17 -19 0
5 14 18 0
-5 -14 -18 0
15 18 20 0
-15 -18 -20 0
6 14 19 0
-6 -14 -19 0
15 19 21 0
-15 -19 -21 0
7 14 20 0
-7 -14 -20 0
15 20 22 0
-15 -20 -22 0
8 14 21 0
-8 -14 -21 0
15 21 23 0
-15 -21 -23 0
9 14 22 0
-9 -14 -22 0
15 22 24 0
-15 -22 -24 0
10 14 23 0
-10 -14 -23 0
15 23 25 0
-15 -23 -25 0
11 14 24 0
-11 -14 -24 0
15 24 26 0
-15 -24 -26 0
12 14 25 0
-12 -14 -25 0
15 25 27 0
-15 -25 -27 0
13 14 26 0
-13 -14 -26 0
14 27 0
-14 -27 0
