certificates/rado_a15_c223_N27.drat
-25 -27 0
-16 -26 14 0
16 14 0
-27 0
14 0
-1 0
-16 0
18 0
10 0
-5 0
-23 0
22 0
6 0
-9 0
-19 0
26 0
2 0
-13 0
-15 0
11 0
0
